51156 17 833 3586 54482 1
51596 29 1421 6033 55856 1
51662 20 980 4175 56316 0.94
51932 19 931 4008 55036 0.98
52178 12 588 2514 54964 0.9
51206 26 1274 5427 55584 0.98
52148 9 441 1876 55948 0.92
51394 16 784 3366 55250 0.98
52276 14 686 2916 55914 0.96
52076 14 686 2943 55456 0.96
